benchmarks/norm/eucliddiv/eucliddiv_norm_inv2_len5_3.smt2
;--------------------------------------------------------------------------
; Benchmark created with Zazu
; Benchmark: 		eucliddiv_norm_inv2_len5_3
; Created:   		2022-01-05 21:35
; Generator of the ideal: 
; 		 -y00 + y
; 		 r - r00 - q00*y00 + q*y00
; Testing invariant: -q^3*r^3*y^3 - q*r*y^3 - q^4*r^2*y^3*y00 + q^3*r*y00 - q^2*q00*y00 + r^4*y^3 + q*q00*y^3*y00 + q*r00*y^3 - r^3*r00*y^3 + q^3*y00 - q^2*y^3*y00 + q*r^3*y^3*y00 + q^3*q00*r^2*y^3*y00 + q^3*r^2*r00*y^3 - q^2*r00 - q00*r^3*y^3*y00 - q^2*r*r00 + q^2*r + q^2*r^2 - q^2*q00*r*y00
;--------------------------------------------------------------------------

(set-logic NIA)
(set-option :produce-proofs true)

(declare-const q00 Int)
(declare-const r00 Int)
(declare-const y00 Int)

(assert 
	(exists
		((q Int) (r Int) (y Int))
		(and
			(= (+ (* (- 1) y00) y) 0)
			(= (+ (- r r00 (* q00 y00)) (* q y00)) 0)

			(or
				(not (= (- (+ (- (+ (- (+ (- (+ (- (+ (- (* (- 1) (+ q 1) (+ q 1) (+ q 1) (- r y00) (- r y00) (- r y00) y00 y00 y00) (* (+ q 1) (- r y00) y00 y00 y00) (* (+ q 1) (+ q 1) (+ q 1) (+ q 1) (- r y00) (- r y00) y00 y00 y00 y00)) (* (+ q 1) (+ q 1) (+ q 1) (- r y00) y00)) (* (+ q 1) (+ q 1) q00 y00)) (* (- r y00) (- r y00) (- r y00) (- r y00) y00 y00 y00) (* (+ q 1) q00 y00 y00 y00 y00) (* (+ q 1) r00 y00 y00 y00)) (* (- r y00) (- r y00) (- r y00) r00 y00 y00 y00)) (* (+ q 1) (+ q 1) (+ q 1) y00)) (* (+ q 1) (+ q 1) y00 y00 y00 y00)) (* (+ q 1) (- r y00) (- r y00) (- r y00) y00 y00 y00 y00) (* (+ q 1) (+ q 1) (+ q 1) q00 (- r y00) (- r y00) y00 y00 y00 y00) (* (+ q 1) (+ q 1) (+ q 1) (- r y00) (- r y00) r00 y00 y00 y00)) (* (+ q 1) (+ q 1) r00) (* q00 (- r y00) (- r y00) (- r y00) y00 y00 y00 y00) (* (+ q 1) (+ q 1) (- r y00) r00)) (* (+ q 1) (+ q 1) (- r y00)) (* (+ q 1) (+ q 1) (- r y00) (- r y00))) (* (+ q 1) (+ q 1) q00 (- r y00) y00)) 0))
			)
		)
	)
)
(check-sat)
(get-proof)
(exit)
