out/norm/eucliddiv/z3/eucliddiv_norm_inv2_len5_3.out
unsat
((set-logic NIA)
(declare-fun q!2 () Int)
(declare-fun r!1 () Int)
(declare-fun y!0 () Int)
(proof
(let ((?x2591 (* (- 1) (* y00 q!2))))
 (let ((?x2417 (* (- 1) r!1)))
 (let ((?x92 (* y00 q00)))
 (let ((?x2592 (+ r00 ?x92 ?x2417 ?x2591)))
 (let (($x2583 (<= ?x2592 0)))
 (let (($x2593 (= ?x2592 0)))
 (let ((?x1625 (* (- 2) (* y00 y00 y00 y00 y00 r!1 q!2 q!2 q!2 q!2))))
 (let ((?x885 (* 2 (* y00 y00 y00 y00 y00 q00 r!1 q!2 q!2 q!2))))
 (let ((?x861 (* (- 1) (* y00 y00 y00 y00 y00 y00 q00 q!2 q!2 q!2))))
 (let ((?x789 (* (- 1) (* y00 y00 y00 y00 q00 r!1 r!1 q!2 q!2 q!2))))
 (let ((?x1515 (+ r00 ?x92 (* y00 r!1 q!2) (* (- 1) (* y00 r!1 q!2 q!2 q!2)) (* y00 y00 q!2 q!2 q!2) (* (- 3) (* y00 y00 y00 y00 y00 r!1 r!1)) (* (- 1) (* y00 y00 y00 r00 q!2)) (* 3 (* y00 y00 y00 y00 y00 r00 r!1)) (* (- 3) (* y00 y00 y00 y00 y00 y00 r!1 q!2)) ?x2417 ?x789 (* (- 3) (* y00 y00 y00 y00 q00 r!1 r!1 q!2)) (* 6 (* y00 y00 y00 y00 y00 q00 r!1 q!2 q!2)) (* (- 3) (* y00 y00 y00 y00 y00 y00 q00 q!2)) ?x861 (* (- 5) (* y00 y00 y00 y00 r!1 r!1 q!2)) (* (- 3) (* y00 y00 y00 r00 r!1 r!1 q!2 q!2)) (* y00 y00 y00 y00 y00 y00 q!2) (* 3 (* y00 y00 y00 y00 y00 y00 q!2 q!2)) (* 3 (* y00 y00 y00 y00 y00 y00 q!2 q!2 q!2)) (* y00 y00 y00 y00 y00 y00 q!2 q!2 q!2 q!2) (* (- 1) (* y00 r!1 q!2 q!2)) (* y00 r!1) (* y00 y00 q!2) (* 2 (* y00 y00 q!2 q!2)) (* 2 (* y00 q00 q!2)) (* y00 q00 q!2 q!2) (* (- 1) (* y00 y00 y00 r!1 r!1 r!1 r!1)) (* 3 (* y00 y00 y00 y00 r!1 r!1 r!1)) (* y00 y00 y00 y00 y00 y00 r!1) (* (- 1) (* y00 y00 y00 y00 q00 q!2)) (* y00 y00 y00 r00 r!1 r!1 r!1) (* (- 3) (* y00 y00 y00 y00 r00 r!1 r!1)) (* (- 2) (* y00 q!2 q!2)) (* (- 1) (* y00 q!2 q!2 q!2)) (* y00 y00 y00 y00 q!2 q!2) (* (- 1) (* y00 y00 y00 y00 r!1 r!1 r!1 q!2)) (* 3 (* y00 y00 y00 y00 y00 r!1 r!1 q!2)) (* y00 y00 y00 y00 r!1 r!1 q!2 q!2 q!2) (* y00 y00 y00 y00 y00 y00 y00 q!2) (* (- 1) (* y00 y00 y00 y00 q00 r!1 r!1)) (* (- 3) (* y00 y00 y00 y00 q00 r!1 r!1 q!2 q!2)) (* 2 (* y00 y00 y00 y00 y00 q00 r!1)) (* 6 (* y00 y00 y00 y00 y00 q00 r!1 q!2)) ?x885 (* (- 3) (* y00 y00 y00 y00 y00 y00 q00 q!2 q!2)) (* (- 1) (* y00 y00 y00 r00 r!1 r!1)) (* (- 1) (* y00 y00 y00 r00 r!1 r!1 q!2 q!2 q!2)) (* (- 3) (* y00 y00 y00 r00 r!1 r!1 q!2)) (* 2 (* y00 y00 y00 y00 r00 r!1)) (* 6 (* y00 y00 y00 y00 r00 r!1 q!2)) (* 6 (* y00 y00 y00 y00 r00 r!1 q!2 q!2)) (* 2 (* y00 y00 y00 y00 r00 r!1 q!2 q!2 q!2)) (* (- 3) (* y00 y00 y00 y00 y00 r00 q!2)) (* (- 3) (* y00 y00 y00 y00 y00 r00 q!2 q!2)) (* (- 1) (* y00 y00 y00 y00 y00 r00 q!2 q!2 q!2)) (* y00 y00 y00 y00 y00 r!1 q!2) (* (- 2) (* r!1 r!1 q!2)) (* (- 2) (* r!1 q!2)) (* (- 1) (* r!1 q!2 q!2)) (* (- 1) (* r!1 r!1 q!2 q!2)) (* y00 q00 r!1 q!2 q!2) (* y00 q00 r!1) (* 2 (* y00 q00 r!1 q!2)) (* (- 2) (* y00 y00 q00 q!2)) (* (- 1) (* y00 y00 q00 q!2 q!2)) (* 2 (* r00 r!1 q!2)) (* (- 3) (* y00 y00 y00 y00 y00 r!1 q!2 q!2)) (* (- 1) (* y00 y00 y00 y00 q00)) (* (- 1) (* y00 y00 y00 r00)) (* (- 1) (* y00 y00 y00 y00 y00 y00 r00)) (* (- 5) (* y00 y00 y00 y00 y00 r!1 q!2 q!2 q!2)) (* y00 y00 y00 y00 r!1 r!1 q!2 q!2 q!2 q!2) (* y00 y00 y00 y00 y00 r!1) ?x1625 (* (- 1) (* y00 y00 y00 y00 y00 y00 q00)) (* r00 r!1 q!2 q!2) (* (- 2) (* y00 r00 q!2)) (* (- 1) (* y00 y00 y00 y00 y00 r00)) (* r00 r!1) (* (- 1) (* y00 y00 y00 y00 y00 y00 y00 q00)) (* (- 3) (* y00 y00 y00 y00 r!1 r!1 q!2 q!2)) (* (- 1) (* y00 r00)) (* 2 (* r00 q!2)) (* r00 q!2 q!2) (* y00 y00 y00 y00 q00 r!1 r!1 r!1) (* (- 3) (* y00 y00 y00 y00 y00 q00 r!1 r!1)) (* 3 (* y00 y00 y00 y00 y00 y00 q00 r!1)) (* (- 1) (* y00 y00 q00)) (* (- 1) (* y00 r00 q!2 q!2)) (* (- 2) (* y00 y00 y00 y00 r!1 r!1)) (* 3 (* y00 y00 y00 r!1 r!1 r!1 q!2 q!2)) (* (- 1) (* r!1 r!1)) ?x2591 (* y00 y00 y00 r!1 r!1 r!1) (* 3 (* y00 y00 y00 r!1 r!1 r!1 q!2)) (* y00 y00 y00 r!1 r!1 r!1 q!2 q!2 q!2) (* y00 y00 y00 r!1) (* y00 y00 y00 r!1 q!2) (* y00 y00 y00 y00 q!2))))
 (let (($x717 (= ?x1515 0)))
 (let (($x278 (not $x717)))
 (let ((?x2574 (+ y00 (* (- 1) y!0))))
 (let (($x2575 (= ?x2574 0)))
 (let (($x2599 (and $x2575 $x2593 $x278)))
 (let ((?x2173 (* y00 y00 q00)))
 (let ((?x2550 (* r!1 r!1)))
 (let ((?x1945 (* y00 r00)))
 (let ((?x1876 (* y00 y00 y00 y00 y00 y00 y00 q00)))
 (let ((?x1675 (* y00 y00 y00 y00 y00 r00)))
 (let ((?x1443 (* y00 y00 y00 y00 y00 y00 q00)))
 (let ((?x2512 (* (- 2) (* q!2 q!2 q!2 r!1 y00 y00 y00 y00 y00 q00))))
 (let ((?x1012 (* y00 y00 y00 y00 y00 y00 r00)))
 (let ((?x932 (* y00 y00 y00 r00)))
 (let ((?x915 (* y00 y00 y00 y00 q00)))
 (let ((?x2461 (* (- 1) (* q!2 q!2 q!2 q!2 y00 y00 y00 y00 y00 y00))))
 (let ((?x2455 (* 2 (* q!2 q!2 q!2 q!2 r!1 y00 y00 y00 y00 y00))))
 (let ((?x2447 (* (- 1) (* q!2 q!2 q!2 q!2 r!1 r!1 y00 y00 y00 y00))))
 (let ((?x102 (* (- 1) ?x92)))
 (let ((?x2424 (* q!2 y00)))
 (let ((?x88 (* (- 1) r00)))
 (let ((?x2412 (+ r!1 ?x88 ?x2424 ?x102 (* (- 1) (* r!1 r!1 r!1 y00 y00 y00)) (* (- 3) (* q!2 r!1 r!1 r!1 y00 y00 y00)) (* (- 3) (* q!2 q!2 r!1 r!1 r!1 y00 y00 y00)) (* (- 1) (* q!2 q!2 q!2 r!1 r!1 r!1 y00 y00 y00)) (* (- 1) (* r!1 y00 y00 y00)) (* (- 1) (* q!2 r!1 y00 y00 y00)) (* (- 1) (* q!2 y00 y00 y00 y00)) (* 2 (* r!1 r!1 y00 y00 y00 y00)) (* 5 (* q!2 r!1 r!1 y00 y00 y00 y00)) (* 3 (* q!2 q!2 r!1 r!1 y00 y00 y00 y00)) (* (- 1) (* q!2 q!2 q!2 r!1 r!1 y00 y00 y00 y00)) ?x2447 (* (- 1) (* r!1 y00 y00 y00 y00 y00)) (* (- 1) (* q!2 r!1 y00 y00 y00 y00 y00)) (* 3 (* q!2 q!2 r!1 y00 y00 y00 y00 y00)) (* 5 (* q!2 q!2 q!2 r!1 y00 y00 y00 y00 y00)) ?x2455 (* (- 1) (* q!2 y00 y00 y00 y00 y00 y00)) (* (- 3) (* q!2 q!2 y00 y00 y00 y00 y00 y00)) (* (- 3) (* q!2 q!2 q!2 y00 y00 y00 y00 y00 y00)) ?x2461 (* q!2 q!2 r!1 y00) (* (- 1) (* q!2 r!1 y00)) (* (- 1) (* r!1 y00)) (* q!2 q!2 q!2 r!1 y00) (* (- 1) (* q!2 y00 y00)) (* (- 2) (* q!2 q!2 y00 y00)) (* (- 1) (* q!2 q!2 q!2 y00 y00)) (* (- 2) (* q!2 y00 q00)) (* (- 1) (* q!2 q!2 y00 q00)) (* r!1 r!1 r!1 r!1 y00 y00 y00) (* (- 3) (* r!1 r!1 r!1 y00 y00 y00 y00)) (* 3 (* r!1 r!1 y00 y00 y00 y00 y00)) (* (- 1) (* r!1 y00 y00 y00 y00 y00 y00)) ?x915 (* q!2 y00 y00 y00 y00 q00) ?x932 (* q!2 y00 y00 y00 r00) (* (- 1) (* r!1 r!1 r!1 y00 y00 y00 r00)) (* 3 (* r!1 r!1 y00 y00 y00 y00 r00)) (* (- 3) (* r!1 y00 y00 y00 y00 y00 r00)) ?x1012 (* 2 (* q!2 q!2 y00)) (* q!2 q!2 q!2 y00) (* (- 1) (* q!2 q!2 y00 y00 y00 y00)) (* q!2 r!1 r!1 r!1 y00 y00 y00 y00) (* (- 3) (* q!2 r!1 r!1 y00 y00 y00 y00 y00)) (* 3 (* q!2 r!1 y00 y00 y00 y00 y00 y00)) (* (- 1) (* q!2 y00 y00 y00 y00 y00 y00 y00)) (* r!1 r!1 y00 y00 y00 y00 q00) (* 3 (* q!2 r!1 r!1 y00 y00 y00 y00 q00)) (* 3 (* q!2 q!2 r!1 r!1 y00 y00 y00 y00 q00)) (* q!2 q!2 q!2 r!1 r!1 y00 y00 y00 y00 q00) (* (- 2) (* r!1 y00 y00 y00 y00 y00 q00)) (* (- 6) (* q!2 r!1 y00 y00 y00 y00 y00 q00)) (* (- 6) (* q!2 q!2 r!1 y00 y00 y00 y00 y00 q00)) ?x2512 ?x1443 (* 3 (* q!2 y00 y00 y00 y00 y00 y00 q00)) (* 3 (* q!2 q!2 y00 y00 y00 y00 y00 y00 q00)) (* q!2 q!2 q!2 y00 y00 y00 y00 y00 y00 q00) (* r!1 r!1 y00 y00 y00 r00) (* 3 (* q!2 r!1 r!1 y00 y00 y00 r00)) (* 3 (* q!2 q!2 r!1 r!1 y00 y00 y00 r00)) (* q!2 q!2 q!2 r!1 r!1 y00 y00 y00 r00) (* (- 2) (* r!1 y00 y00 y00 y00 r00)) (* (- 6) (* q!2 r!1 y00 y00 y00 y00 r00)) (* (- 6) (* q!2 q!2 r!1 y00 y00 y00 y00 r00)) (* (- 2) (* q!2 q!2 q!2 r!1 y00 y00 y00 y00 r00)) ?x1675 (* 3 (* q!2 y00 y00 y00 y00 y00 r00)) (* 3 (* q!2 q!2 y00 y00 y00 y00 y00 r00)) (* q!2 q!2 q!2 y00 y00 y00 y00 y00 r00) (* (- 2) (* q!2 r00)) (* (- 1) (* q!2 q!2 r00)) (* (- 1) (* r!1 r!1 r!1 y00 y00 y00 y00 q00)) (* 3 (* r!1 r!1 y00 y00 y00 y00 y00 q00)) (* (- 3) (* r!1 y00 y00 y00 y00 y00 y00 q00)) ?x1876 (* (- 1) (* r!1 r00)) (* (- 2) (* q!2 r!1 r00)) (* (- 1) (* q!2 q!2 r!1 r00)) ?x1945 (* 2 (* q!2 y00 r00)) (* q!2 q!2 y00 r00) (* 2 (* q!2 r!1)) (* q!2 q!2 r!1) ?x2550 (* 2 (* q!2 r!1 r!1)) (* q!2 q!2 r!1 r!1) (* (- 1) (* r!1 y00 q00)) (* (- 2) (* q!2 r!1 y00 q00)) (* (- 1) (* q!2 q!2 r!1 y00 q00)) ?x2173 (* 2 (* q!2 y00 y00 q00)) (* q!2 q!2 y00 y00 q00))))
 (let (($x2564 (and (= (+ y!0 (* (- 1) y00)) 0) (= (+ r!1 ?x88 ?x2424 ?x102) 0) (not (= ?x2412 0)))))
 (let (($x3099 (exists ((q Int) (r Int) (y Int) )(! (let ((?x2197 (* q q y00 y00 q00)))
 (let ((?x2238 (* 2 (* q y00 y00 q00))))
 (let ((?x2173 (* y00 y00 q00)))
 (let ((?x2226 (* (- 1) (* q q r y00 q00))))
 (let ((?x2233 (* (- 2) (* q r y00 q00))))
 (let ((?x2224 (* (- 1) (* r y00 q00))))
 (let ((?x2054 (* q q r r)))
 (let ((?x2118 (* 2 (* q r r))))
 (let ((?x2051 (* r r)))
 (let ((?x2012 (* q q r)))
 (let ((?x2039 (* 2 (* q r))))
 (let ((?x1955 (* q q y00 r00)))
 (let ((?x1994 (* 2 (* q y00 r00))))
 (let ((?x1945 (* y00 r00)))
 (let ((?x1982 (* (- 1) (* q q r r00))))
 (let ((?x1989 (* (- 2) (* q r r00))))
 (let ((?x1980 (* (- 1) (* r r00))))
 (let ((?x1876 (* y00 y00 y00 y00 y00 y00 y00 q00)))
 (let ((?x1913 (* (- 3) (* r y00 y00 y00 y00 y00 y00 q00))))
 (let ((?x1910 (* 3 (* r r y00 y00 y00 y00 y00 q00))))
 (let ((?x1903 (* (- 1) (* r r r y00 y00 y00 y00 q00))))
 (let ((?x1785 (* (- 1) (* q q r00))))
 (let ((?x1789 (* (- 2) (* q r00))))
 (let ((?x1715 (* q q q y00 y00 y00 y00 y00 r00)))
 (let ((?x1730 (* 3 (* q q y00 y00 y00 y00 y00 r00))))
 (let ((?x1729 (* 3 (* q y00 y00 y00 y00 y00 r00))))
 (let ((?x1675 (* y00 y00 y00 y00 y00 r00)))
 (let ((?x1728 (* (- 2) (* q q q r y00 y00 y00 y00 r00))))
 (let ((?x1727 (* (- 6) (* q q r y00 y00 y00 y00 r00))))
 (let ((?x1726 (* (- 6) (* q r y00 y00 y00 y00 r00))))
 (let ((?x1725 (* (- 2) (* r y00 y00 y00 y00 r00))))
 (let ((?x1571 (* q q q r r y00 y00 y00 r00)))
 (let ((?x1724 (* 3 (* q q r r y00 y00 y00 r00))))
 (let ((?x1723 (* 3 (* q r r y00 y00 y00 r00))))
 (let ((?x1546 (* r r y00 y00 y00 r00)))
 (let ((?x1483 (* q q q y00 y00 y00 y00 y00 y00 q00)))
 (let ((?x1498 (* 3 (* q q y00 y00 y00 y00 y00 y00 q00))))
 (let ((?x1497 (* 3 (* q y00 y00 y00 y00 y00 y00 q00))))
 (let ((?x1443 (* y00 y00 y00 y00 y00 y00 q00)))
 (let ((?x1496 (* (- 2) (* q q q r y00 y00 y00 y00 y00 q00))))
 (let ((?x1495 (* (- 6) (* q q r y00 y00 y00 y00 y00 q00))))
 (let ((?x1494 (* (- 6) (* q r y00 y00 y00 y00 y00 q00))))
 (let ((?x1493 (* (- 2) (* r y00 y00 y00 y00 y00 q00))))
 (let ((?x1333 (* q q q r r y00 y00 y00 y00 q00)))
 (let ((?x1492 (* 3 (* q q r r y00 y00 y00 y00 q00))))
 (let ((?x1491 (* 3 (* q r r y00 y00 y00 y00 q00))))
 (let ((?x1308 (* r r y00 y00 y00 y00 q00)))
 (let ((?x1251 (* (- 1) (* q y00 y00 y00 y00 y00 y00 y00))))
 (let ((?x1260 (* 3 (* q r y00 y00 y00 y00 y00 y00))))
 (let ((?x1258 (* (- 3) (* q r r y00 y00 y00 y00 y00))))
 (let ((?x1164 (* q r r r y00 y00 y00 y00)))
 (let ((?x1141 (* (- 1) (* q q y00 y00 y00 y00))))
 (let ((?x1072 (* q q q y00)))
 (let ((?x2134 (* 2 (* q q y00))))
 (let ((?x1012 (* y00 y00 y00 y00 y00 y00 r00)))
 (let ((?x1049 (* (- 3) (* r y00 y00 y00 y00 y00 r00))))
 (let ((?x1046 (* 3 (* r r y00 y00 y00 y00 r00))))
 (let ((?x1039 (* (- 1) (* r r r y00 y00 y00 r00))))
 (let ((?x935 (* q y00 y00 y00 r00)))
 (let ((?x932 (* y00 y00 y00 r00)))
 (let ((?x918 (* q y00 y00 y00 y00 q00)))
 (let ((?x915 (* y00 y00 y00 y00 q00)))
 (let ((?x850 (* (- 1) (* r y00 y00 y00 y00 y00 y00))))
 (let ((?x1742 (* 3 (* r r y00 y00 y00 y00 y00))))
 (let ((?x1741 (* (- 3) (* r r r y00 y00 y00 y00))))
 (let ((?x780 (* r r r r y00 y00 y00)))
 (let ((?x757 (* (- 1) (* q q y00 q00))))
 (let ((?x761 (* (- 2) (* q y00 q00))))
 (let ((?x686 (* (- 1) (* q q q y00 y00))))
 (let ((?x2133 (* (- 2) (* q q y00 y00))))
 (let ((?x670 (* (- 1) (* q y00 y00))))
 (let ((?x642 (* q q q r y00)))
 (let ((?x2074 (* (- 1) (* r y00))))
 (let ((?x2083 (* (- 1) (* q r y00))))
 (let ((?x605 (* q q r y00)))
 (let ((?x598 (* (- 1) (* q q q q y00 y00 y00 y00 y00 y00))))
 (let ((?x628 (* 2 (* q q q q r y00 y00 y00 y00 y00))))
 (let ((?x588 (* (- 1) (* q q q q r r y00 y00 y00 y00))))
 (let ((?x263 (* (- 1) (* q y00 y00 y00 y00))))
 (let ((?x277 (* (- 1) (* q r y00 y00 y00))))
 (let ((?x276 (* (- 1) (* r y00 y00 y00))))
 (let ((?x128 (* (- 1) (* q q q r r r y00 y00 y00))))
 (let ((?x107 (* (- 1) (* r r r y00 y00 y00))))
 (let ((?x92 (* y00 q00)))
 (let ((?x102 (* (- 1) ?x92)))
 (let ((?x39 (* q y00)))
 (let ((?x88 (* (- 1) r00)))
 (let ((?x3092 (+ r ?x88 ?x39 ?x102 ?x107 (* (- 3) (* q r r r y00 y00 y00)) (* (- 3) (* q q r r r y00 y00 y00)) ?x128 ?x276 ?x277 ?x263 (* 2 (* r r y00 y00 y00 y00)) (* 5 (* q r r y00 y00 y00 y00)) (* 3 (* q q r r y00 y00 y00 y00)) (* (- 1) (* q q q r r y00 y00 y00 y00)) ?x588 (* (- 1) (* r y00 y00 y00 y00 y00)) (* (- 1) (* q r y00 y00 y00 y00 y00)) (* 3 (* q q r y00 y00 y00 y00 y00)) (* 5 (* q q q r y00 y00 y00 y00 y00)) ?x628 (* (- 1) (* q y00 y00 y00 y00 y00 y00)) (* (- 3) (* q q y00 y00 y00 y00 y00 y00)) (* (- 3) (* q q q y00 y00 y00 y00 y00 y00)) ?x598 ?x605 ?x2083 ?x2074 ?x642 ?x670 ?x2133 ?x686 ?x761 ?x757 ?x780 ?x1741 ?x1742 ?x850 ?x915 ?x918 ?x932 ?x935 ?x1039 ?x1046 ?x1049 ?x1012 ?x2134 ?x1072 ?x1141 ?x1164 ?x1258 ?x1260 ?x1251 ?x1308 ?x1491 ?x1492 ?x1333 ?x1493 ?x1494 ?x1495 ?x1496 ?x1443 ?x1497 ?x1498 ?x1483 ?x1546 ?x1723 ?x1724 ?x1571 ?x1725 ?x1726 ?x1727 ?x1728 ?x1675 ?x1729 ?x1730 ?x1715 ?x1789 ?x1785 ?x1903 ?x1910 ?x1913 ?x1876 ?x1980 ?x1989 ?x1982 ?x1945 ?x1994 ?x1955 ?x2039 ?x2012 ?x2051 ?x2118 ?x2054 ?x2224 ?x2233 ?x2226 ?x2173 ?x2238 ?x2197)))
 (let (($x121 (= (+ r ?x88 ?x39 ?x102) 0)))
 (let (($x98 (= (+ y (* (- 1) y00)) 0)))
 (and $x98 $x121 (not (= ?x3092 0))))))))))))))))))))))))))))))))))))))))))))))))))))))))))))))))))))))))))))))))))))))))))))) :qid k!29))
 ))
 (let (($x344 (exists ((q Int) (r Int) (y Int) )(! (let ((?x87 (* (- 1) y00)))
 (let ((?x1906 (+ r ?x87)))
 (let ((?x1886 (+ 1 q)))
 (let ((?x2010 (* q00 y00 ?x1886 ?x1886 ?x1906)))
 (let ((?x540 (* r00 ?x1886 ?x1886 ?x1906)))
 (let ((?x354 (* q00 y00 y00 y00 y00 ?x1906 ?x1906 ?x1906)))
 (let ((?x507 (* r00 ?x1886 ?x1886)))
 (let ((?x491 (* q00 y00 y00 y00 y00 ?x1886 ?x1886 ?x1886 ?x1906 ?x1906)))
 (let ((?x467 (* y00 y00 y00 y00 ?x1886 ?x1886)))
 (let ((?x435 (* r00 y00 y00 y00 ?x1906 ?x1906 ?x1906)))
 (let ((?x312 (* q00 y00 ?x1886 ?x1886)))
 (let ((?x1150 (* y00 y00 y00 y00 ?x1886 ?x1886 ?x1886 ?x1886 ?x1906 ?x1906)))
 (let ((?x1148 (* y00 y00 y00 ?x1886 ?x1906)))
 (let ((?x869 (* y00 y00 y00 ?x1886 ?x1886 ?x1886 ?x1906 ?x1906 ?x1906)))
 (let ((?x1885 (+ ?x869 ?x1148 ?x1150 (* (- 1) (* y00 ?x1886 ?x1886 ?x1886 ?x1906)) ?x312 (* (- 1) (* y00 y00 y00 ?x1906 ?x1906 ?x1906 ?x1906)) (* (- 1) (* q00 y00 y00 y00 y00 ?x1886)) (* (- 1) (* r00 y00 y00 y00 ?x1886)) ?x435 (* (- 1) (* y00 ?x1886 ?x1886 ?x1886)) ?x467 (* (- 1) (* y00 y00 y00 y00 ?x1886 ?x1906 ?x1906 ?x1906)) (* (- 1) ?x491) (* (- 1) (* r00 y00 y00 y00 ?x1886 ?x1886 ?x1886 ?x1906 ?x1906)) ?x507 ?x354 ?x540 (* (- 1) (* ?x1886 ?x1886 ?x1906)) (* (- 1) (* ?x1886 ?x1886 ?x1906 ?x1906)) ?x2010)))
 (let (($x1144 (= (+ r (* (- 1) r00) (* (- 1) (* q00 y00)) (* y00 q)) 0)))
 (and (= (+ y00 (* (- 1) y)) 0) $x1144 (not (= ?x1885 0))))))))))))))))))) :qid k!29))
 ))
 (let ((?x3101 (lambda ((q Int) (r Int) (y Int) )(let ((?x2197 (* q q y00 y00 q00)))
 (let ((?x2238 (* 2 (* q y00 y00 q00))))
 (let ((?x2173 (* y00 y00 q00)))
 (let ((?x2226 (* (- 1) (* q q r y00 q00))))
 (let ((?x2233 (* (- 2) (* q r y00 q00))))
 (let ((?x2224 (* (- 1) (* r y00 q00))))
 (let ((?x2054 (* q q r r)))
 (let ((?x2118 (* 2 (* q r r))))
 (let ((?x2051 (* r r)))
 (let ((?x2012 (* q q r)))
 (let ((?x2039 (* 2 (* q r))))
 (let ((?x1955 (* q q y00 r00)))
 (let ((?x1994 (* 2 (* q y00 r00))))
 (let ((?x1945 (* y00 r00)))
 (let ((?x1982 (* (- 1) (* q q r r00))))
 (let ((?x1989 (* (- 2) (* q r r00))))
 (let ((?x1980 (* (- 1) (* r r00))))
 (let ((?x1876 (* y00 y00 y00 y00 y00 y00 y00 q00)))
 (let ((?x1913 (* (- 3) (* r y00 y00 y00 y00 y00 y00 q00))))
 (let ((?x1910 (* 3 (* r r y00 y00 y00 y00 y00 q00))))
 (let ((?x1903 (* (- 1) (* r r r y00 y00 y00 y00 q00))))
 (let ((?x1785 (* (- 1) (* q q r00))))
 (let ((?x1789 (* (- 2) (* q r00))))
 (let ((?x1715 (* q q q y00 y00 y00 y00 y00 r00)))
 (let ((?x1730 (* 3 (* q q y00 y00 y00 y00 y00 r00))))
 (let ((?x1729 (* 3 (* q y00 y00 y00 y00 y00 r00))))
 (let ((?x1675 (* y00 y00 y00 y00 y00 r00)))
 (let ((?x1728 (* (- 2) (* q q q r y00 y00 y00 y00 r00))))
 (let ((?x1727 (* (- 6) (* q q r y00 y00 y00 y00 r00))))
 (let ((?x1726 (* (- 6) (* q r y00 y00 y00 y00 r00))))
 (let ((?x1725 (* (- 2) (* r y00 y00 y00 y00 r00))))
 (let ((?x1571 (* q q q r r y00 y00 y00 r00)))
 (let ((?x1724 (* 3 (* q q r r y00 y00 y00 r00))))
 (let ((?x1723 (* 3 (* q r r y00 y00 y00 r00))))
 (let ((?x1546 (* r r y00 y00 y00 r00)))
 (let ((?x1483 (* q q q y00 y00 y00 y00 y00 y00 q00)))
 (let ((?x1498 (* 3 (* q q y00 y00 y00 y00 y00 y00 q00))))
 (let ((?x1497 (* 3 (* q y00 y00 y00 y00 y00 y00 q00))))
 (let ((?x1443 (* y00 y00 y00 y00 y00 y00 q00)))
 (let ((?x1496 (* (- 2) (* q q q r y00 y00 y00 y00 y00 q00))))
 (let ((?x1495 (* (- 6) (* q q r y00 y00 y00 y00 y00 q00))))
 (let ((?x1494 (* (- 6) (* q r y00 y00 y00 y00 y00 q00))))
 (let ((?x1493 (* (- 2) (* r y00 y00 y00 y00 y00 q00))))
 (let ((?x1333 (* q q q r r y00 y00 y00 y00 q00)))
 (let ((?x1492 (* 3 (* q q r r y00 y00 y00 y00 q00))))
 (let ((?x1491 (* 3 (* q r r y00 y00 y00 y00 q00))))
 (let ((?x1308 (* r r y00 y00 y00 y00 q00)))
 (let ((?x1251 (* (- 1) (* q y00 y00 y00 y00 y00 y00 y00))))
 (let ((?x1260 (* 3 (* q r y00 y00 y00 y00 y00 y00))))
 (let ((?x1258 (* (- 3) (* q r r y00 y00 y00 y00 y00))))
 (let ((?x1164 (* q r r r y00 y00 y00 y00)))
 (let ((?x1141 (* (- 1) (* q q y00 y00 y00 y00))))
 (let ((?x1072 (* q q q y00)))
 (let ((?x2134 (* 2 (* q q y00))))
 (let ((?x1012 (* y00 y00 y00 y00 y00 y00 r00)))
 (let ((?x1049 (* (- 3) (* r y00 y00 y00 y00 y00 r00))))
 (let ((?x1046 (* 3 (* r r y00 y00 y00 y00 r00))))
 (let ((?x1039 (* (- 1) (* r r r y00 y00 y00 r00))))
 (let ((?x935 (* q y00 y00 y00 r00)))
 (let ((?x932 (* y00 y00 y00 r00)))
 (let ((?x918 (* q y00 y00 y00 y00 q00)))
 (let ((?x915 (* y00 y00 y00 y00 q00)))
 (let ((?x850 (* (- 1) (* r y00 y00 y00 y00 y00 y00))))
 (let ((?x1742 (* 3 (* r r y00 y00 y00 y00 y00))))
 (let ((?x1741 (* (- 3) (* r r r y00 y00 y00 y00))))
 (let ((?x780 (* r r r r y00 y00 y00)))
 (let ((?x757 (* (- 1) (* q q y00 q00))))
 (let ((?x761 (* (- 2) (* q y00 q00))))
 (let ((?x686 (* (- 1) (* q q q y00 y00))))
 (let ((?x2133 (* (- 2) (* q q y00 y00))))
 (let ((?x670 (* (- 1) (* q y00 y00))))
 (let ((?x642 (* q q q r y00)))
 (let ((?x2074 (* (- 1) (* r y00))))
 (let ((?x2083 (* (- 1) (* q r y00))))
 (let ((?x605 (* q q r y00)))
 (let ((?x598 (* (- 1) (* q q q q y00 y00 y00 y00 y00 y00))))
 (let ((?x628 (* 2 (* q q q q r y00 y00 y00 y00 y00))))
 (let ((?x588 (* (- 1) (* q q q q r r y00 y00 y00 y00))))
 (let ((?x263 (* (- 1) (* q y00 y00 y00 y00))))
 (let ((?x277 (* (- 1) (* q r y00 y00 y00))))
 (let ((?x276 (* (- 1) (* r y00 y00 y00))))
 (let ((?x128 (* (- 1) (* q q q r r r y00 y00 y00))))
 (let ((?x107 (* (- 1) (* r r r y00 y00 y00))))
 (let ((?x92 (* y00 q00)))
 (let ((?x102 (* (- 1) ?x92)))
 (let ((?x39 (* q y00)))
 (let ((?x88 (* (- 1) r00)))
 (let ((?x3092 (+ r ?x88 ?x39 ?x102 ?x107 (* (- 3) (* q r r r y00 y00 y00)) (* (- 3) (* q q r r r y00 y00 y00)) ?x128 ?x276 ?x277 ?x263 (* 2 (* r r y00 y00 y00 y00)) (* 5 (* q r r y00 y00 y00 y00)) (* 3 (* q q r r y00 y00 y00 y00)) (* (- 1) (* q q q r r y00 y00 y00 y00)) ?x588 (* (- 1) (* r y00 y00 y00 y00 y00)) (* (- 1) (* q r y00 y00 y00 y00 y00)) (* 3 (* q q r y00 y00 y00 y00 y00)) (* 5 (* q q q r y00 y00 y00 y00 y00)) ?x628 (* (- 1) (* q y00 y00 y00 y00 y00 y00)) (* (- 3) (* q q y00 y00 y00 y00 y00 y00)) (* (- 3) (* q q q y00 y00 y00 y00 y00 y00)) ?x598 ?x605 ?x2083 ?x2074 ?x642 ?x670 ?x2133 ?x686 ?x761 ?x757 ?x780 ?x1741 ?x1742 ?x850 ?x915 ?x918 ?x932 ?x935 ?x1039 ?x1046 ?x1049 ?x1012 ?x2134 ?x1072 ?x1141 ?x1164 ?x1258 ?x1260 ?x1251 ?x1308 ?x1491 ?x1492 ?x1333 ?x1493 ?x1494 ?x1495 ?x1496 ?x1443 ?x1497 ?x1498 ?x1483 ?x1546 ?x1723 ?x1724 ?x1571 ?x1725 ?x1726 ?x1727 ?x1728 ?x1675 ?x1729 ?x1730 ?x1715 ?x1789 ?x1785 ?x1903 ?x1910 ?x1913 ?x1876 ?x1980 ?x1989 ?x1982 ?x1945 ?x1994 ?x1955 ?x2039 ?x2012 ?x2051 ?x2118 ?x2054 ?x2224 ?x2233 ?x2226 ?x2173 ?x2238 ?x2197)))
 (let (($x121 (= (+ r ?x88 ?x39 ?x102) 0)))
 (let (($x98 (= (+ y (* (- 1) y00)) 0)))
 (let (($x1576 (and $x98 $x121 (not (= ?x3092 0)))))
 (let ((?x87 (* (- 1) y00)))
 (let ((?x1906 (+ r ?x87)))
 (let ((?x1886 (+ 1 q)))
 (let ((?x2010 (* q00 y00 ?x1886 ?x1886 ?x1906)))
 (let ((?x540 (* r00 ?x1886 ?x1886 ?x1906)))
 (let ((?x354 (* q00 y00 y00 y00 y00 ?x1906 ?x1906 ?x1906)))
 (let ((?x507 (* r00 ?x1886 ?x1886)))
 (let ((?x491 (* q00 y00 y00 y00 y00 ?x1886 ?x1886 ?x1886 ?x1906 ?x1906)))
 (let ((?x467 (* y00 y00 y00 y00 ?x1886 ?x1886)))
 (let ((?x435 (* r00 y00 y00 y00 ?x1906 ?x1906 ?x1906)))
 (let ((?x312 (* q00 y00 ?x1886 ?x1886)))
 (let ((?x1150 (* y00 y00 y00 y00 ?x1886 ?x1886 ?x1886 ?x1886 ?x1906 ?x1906)))
 (let ((?x1148 (* y00 y00 y00 ?x1886 ?x1906)))
 (let ((?x869 (* y00 y00 y00 ?x1886 ?x1886 ?x1886 ?x1906 ?x1906 ?x1906)))
 (let ((?x1885 (+ ?x869 ?x1148 ?x1150 (* (- 1) (* y00 ?x1886 ?x1886 ?x1886 ?x1906)) ?x312 (* (- 1) (* y00 y00 y00 ?x1906 ?x1906 ?x1906 ?x1906)) (* (- 1) (* q00 y00 y00 y00 y00 ?x1886)) (* (- 1) (* r00 y00 y00 y00 ?x1886)) ?x435 (* (- 1) (* y00 ?x1886 ?x1886 ?x1886)) ?x467 (* (- 1) (* y00 y00 y00 y00 ?x1886 ?x1906 ?x1906 ?x1906)) (* (- 1) ?x491) (* (- 1) (* r00 y00 y00 y00 ?x1886 ?x1886 ?x1886 ?x1906 ?x1906)) ?x507 ?x354 ?x540 (* (- 1) (* ?x1886 ?x1886 ?x1906)) (* (- 1) (* ?x1886 ?x1886 ?x1906 ?x1906)) ?x2010)))
 (let (($x1144 (= (+ r ?x88 (* (- 1) (* q00 y00)) (* y00 q)) 0)))
 (let (($x2176 (and (= (+ y00 (* (- 1) y)) 0) $x1144 (not (= ?x1885 0)))))
 (rewrite (= $x2176 $x1576)))))))))))))))))))))))))))))))))))))))))))))))))))))))))))))))))))))))))))))))))))))))))))))))))))))))))))))))
 ))
 (let (($x2169 (exists ((q Int) (r Int) (y Int) )(! (let ((?x87 (* (- 1) y00)))
 (let ((?x1906 (+ r ?x87)))
 (let ((?x1886 (+ 1 q)))
 (let ((?x2010 (* q00 y00 ?x1886 ?x1886 ?x1906)))
 (let ((?x561 (* ?x1886 ?x1886 ?x1906 ?x1906)))
 (let ((?x559 (* ?x1886 ?x1886 ?x1906)))
 (let ((?x496 (* r00 y00 y00 y00 ?x1886 ?x1886 ?x1886 ?x1906 ?x1906)))
 (let ((?x491 (* q00 y00 y00 y00 y00 ?x1886 ?x1886 ?x1886 ?x1906 ?x1906)))
 (let ((?x336 (* y00 y00 y00 y00 ?x1886 ?x1906 ?x1906 ?x1906)))
 (let ((?x454 (* y00 ?x1886 ?x1886 ?x1886)))
 (let ((?x422 (* r00 y00 y00 y00 ?x1886)))
 (let ((?x417 (* q00 y00 y00 y00 y00 ?x1886)))
 (let ((?x407 (* y00 y00 y00 ?x1906 ?x1906 ?x1906 ?x1906)))
 (let ((?x377 (* y00 ?x1886 ?x1886 ?x1886 ?x1906)))
 (let ((?x2034 (+ (* (- 1) (* y00 y00 y00 ?x1886 ?x1886 ?x1886 ?x1906 ?x1906 ?x1906)) (* (- 1) (* y00 y00 y00 ?x1886 ?x1906)) (* (- 1) (* y00 y00 y00 y00 ?x1886 ?x1886 ?x1886 ?x1886 ?x1906 ?x1906)) ?x377 (* (- 1) (* q00 y00 ?x1886 ?x1886)) ?x407 ?x417 ?x422 (* (- 1) (* r00 y00 y00 y00 ?x1906 ?x1906 ?x1906)) ?x454 (* (- 1) (* y00 y00 y00 y00 ?x1886 ?x1886)) ?x336 ?x491 ?x496 (* (- 1) (* r00 ?x1886 ?x1886)) (* (- 1) (* q00 y00 y00 y00 y00 ?x1906 ?x1906 ?x1906)) (* (- 1) (* r00 ?x1886 ?x1886 ?x1906)) ?x559 ?x561 (* (- 1) ?x2010))))
 (let (($x1144 (= (+ r (* (- 1) r00) (* (- 1) (* q00 y00)) (* y00 q)) 0)))
 (and (= (+ ?x87 y) 0) $x1144 (not (= ?x2034 0))))))))))))))))))) :qid k!29))
 ))
 (let ((?x518 (lambda ((q Int) (r Int) (y Int) )(let ((?x87 (* (- 1) y00)))
 (let ((?x1906 (+ r ?x87)))
 (let ((?x1886 (+ 1 q)))
 (let ((?x2010 (* q00 y00 ?x1886 ?x1886 ?x1906)))
 (let ((?x540 (* r00 ?x1886 ?x1886 ?x1906)))
 (let ((?x354 (* q00 y00 y00 y00 y00 ?x1906 ?x1906 ?x1906)))
 (let ((?x507 (* r00 ?x1886 ?x1886)))
 (let ((?x491 (* q00 y00 y00 y00 y00 ?x1886 ?x1886 ?x1886 ?x1906 ?x1906)))
 (let ((?x467 (* y00 y00 y00 y00 ?x1886 ?x1886)))
 (let ((?x435 (* r00 y00 y00 y00 ?x1906 ?x1906 ?x1906)))
 (let ((?x312 (* q00 y00 ?x1886 ?x1886)))
 (let ((?x1150 (* y00 y00 y00 y00 ?x1886 ?x1886 ?x1886 ?x1886 ?x1906 ?x1906)))
 (let ((?x1148 (* y00 y00 y00 ?x1886 ?x1906)))
 (let ((?x869 (* y00 y00 y00 ?x1886 ?x1886 ?x1886 ?x1906 ?x1906 ?x1906)))
 (let ((?x1885 (+ ?x869 ?x1148 ?x1150 (* (- 1) (* y00 ?x1886 ?x1886 ?x1886 ?x1906)) ?x312 (* (- 1) (* y00 y00 y00 ?x1906 ?x1906 ?x1906 ?x1906)) (* (- 1) (* q00 y00 y00 y00 y00 ?x1886)) (* (- 1) (* r00 y00 y00 y00 ?x1886)) ?x435 (* (- 1) (* y00 ?x1886 ?x1886 ?x1886)) ?x467 (* (- 1) (* y00 y00 y00 y00 ?x1886 ?x1906 ?x1906 ?x1906)) (* (- 1) ?x491) (* (- 1) (* r00 y00 y00 y00 ?x1886 ?x1886 ?x1886 ?x1906 ?x1906)) ?x507 ?x354 ?x540 (* (- 1) (* ?x1886 ?x1886 ?x1906)) (* (- 1) (* ?x1886 ?x1886 ?x1906 ?x1906)) ?x2010)))
 (let (($x1144 (= (+ r (* (- 1) r00) (* (- 1) (* q00 y00)) (* y00 q)) 0)))
 (let (($x2176 (and (= (+ y00 (* (- 1) y)) 0) $x1144 (not (= ?x1885 0)))))
 (let ((?x561 (* ?x1886 ?x1886 ?x1906 ?x1906)))
 (let ((?x559 (* ?x1886 ?x1886 ?x1906)))
 (let ((?x496 (* r00 y00 y00 y00 ?x1886 ?x1886 ?x1886 ?x1906 ?x1906)))
 (let ((?x336 (* y00 y00 y00 y00 ?x1886 ?x1906 ?x1906 ?x1906)))
 (let ((?x454 (* y00 ?x1886 ?x1886 ?x1886)))
 (let ((?x422 (* r00 y00 y00 y00 ?x1886)))
 (let ((?x417 (* q00 y00 y00 y00 y00 ?x1886)))
 (let ((?x407 (* y00 y00 y00 ?x1906 ?x1906 ?x1906 ?x1906)))
 (let ((?x377 (* y00 ?x1886 ?x1886 ?x1886 ?x1906)))
 (let ((?x2034 (+ (* (- 1) ?x869) (* (- 1) ?x1148) (* (- 1) ?x1150) ?x377 (* (- 1) ?x312) ?x407 ?x417 ?x422 (* (- 1) ?x435) ?x454 (* (- 1) ?x467) ?x336 ?x491 ?x496 (* (- 1) ?x507) (* (- 1) ?x354) (* (- 1) ?x540) ?x559 ?x561 (* (- 1) ?x2010))))
 (let (($x1142 (and (= (+ ?x87 y) 0) $x1144 (not (= ?x2034 0)))))
 (rewrite (= $x1142 $x2176)))))))))))))))))))))))))))))))
 ))
 (let (($x82 (exists ((q Int) (r Int) (y Int) )(! (let ((?x43 (- r y00)))
 (let ((?x42 (+ q 1)))
 (let ((?x47 (- (* (- 1) ?x42 ?x42 ?x42 ?x43 ?x43 ?x43 y00 y00 y00) (* ?x42 ?x43 y00 y00 y00))))
 (let ((?x50 (+ (- ?x47 (* ?x42 ?x42 ?x42 ?x42 ?x43 ?x43 y00 y00 y00 y00)) (* ?x42 ?x42 ?x42 ?x43 y00))))
 (let ((?x56 (+ (- ?x50 (* ?x42 ?x42 q00 y00)) (* ?x43 ?x43 ?x43 ?x43 y00 y00 y00) (* ?x42 q00 y00 y00 y00 y00) (* ?x42 r00 y00 y00 y00))))
 (let ((?x60 (+ (- ?x56 (* ?x43 ?x43 ?x43 r00 y00 y00 y00)) (* ?x42 ?x42 ?x42 y00))))
 (let ((?x66 (+ (- ?x60 (* ?x42 ?x42 y00 y00 y00 y00)) (* ?x42 ?x43 ?x43 ?x43 y00 y00 y00 y00) (* ?x42 ?x42 ?x42 q00 ?x43 ?x43 y00 y00 y00 y00) (* ?x42 ?x42 ?x42 ?x43 ?x43 r00 y00 y00 y00))))
 (let ((?x71 (- (- ?x66 (* ?x42 ?x42 r00)) (* q00 ?x43 ?x43 ?x43 y00 y00 y00 y00))))
 (let ((?x75 (+ (- ?x71 (* ?x42 ?x42 ?x43 r00)) (* ?x42 ?x42 ?x43) (* ?x42 ?x42 ?x43 ?x43))))
 (and (= (+ (* (- 1) y00) y) 0) (= (+ (- (- r r00) (* q00 y00)) (* q y00)) 0) (or (not (= (- ?x75 (* ?x42 ?x42 q00 ?x43 y00)) 0))))))))))))) :qid k!29))
 ))
 (let ((?x258 (lambda ((q Int) (r Int) (y Int) )(let ((?x87 (* (- 1) y00)))
 (let ((?x1906 (+ r ?x87)))
 (let ((?x1886 (+ 1 q)))
 (let ((?x2010 (* q00 y00 ?x1886 ?x1886 ?x1906)))
 (let ((?x561 (* ?x1886 ?x1886 ?x1906 ?x1906)))
 (let ((?x559 (* ?x1886 ?x1886 ?x1906)))
 (let ((?x496 (* r00 y00 y00 y00 ?x1886 ?x1886 ?x1886 ?x1906 ?x1906)))
 (let ((?x491 (* q00 y00 y00 y00 y00 ?x1886 ?x1886 ?x1886 ?x1906 ?x1906)))
 (let ((?x336 (* y00 y00 y00 y00 ?x1886 ?x1906 ?x1906 ?x1906)))
 (let ((?x454 (* y00 ?x1886 ?x1886 ?x1886)))
 (let ((?x422 (* r00 y00 y00 y00 ?x1886)))
 (let ((?x417 (* q00 y00 y00 y00 y00 ?x1886)))
 (let ((?x407 (* y00 y00 y00 ?x1906 ?x1906 ?x1906 ?x1906)))
 (let ((?x377 (* y00 ?x1886 ?x1886 ?x1886 ?x1906)))
 (let ((?x2034 (+ (* (- 1) (* y00 y00 y00 ?x1886 ?x1886 ?x1886 ?x1906 ?x1906 ?x1906)) (* (- 1) (* y00 y00 y00 ?x1886 ?x1906)) (* (- 1) (* y00 y00 y00 y00 ?x1886 ?x1886 ?x1886 ?x1886 ?x1906 ?x1906)) ?x377 (* (- 1) (* q00 y00 ?x1886 ?x1886)) ?x407 ?x417 ?x422 (* (- 1) (* r00 y00 y00 y00 ?x1906 ?x1906 ?x1906)) ?x454 (* (- 1) (* y00 y00 y00 y00 ?x1886 ?x1886)) ?x336 ?x491 ?x496 (* (- 1) (* r00 ?x1886 ?x1886)) (* (- 1) (* q00 y00 y00 y00 y00 ?x1906 ?x1906 ?x1906)) (* (- 1) (* r00 ?x1886 ?x1886 ?x1906)) ?x559 ?x561 (* (- 1) ?x2010))))
 (let (($x1144 (= (+ r (* (- 1) r00) (* (- 1) (* q00 y00)) (* y00 q)) 0)))
 (let (($x1142 (and (= (+ ?x87 y) 0) $x1144 (not (= ?x2034 0)))))
 (let ((?x43 (- r y00)))
 (let ((?x42 (+ q 1)))
 (let ((?x47 (- (* (- 1) ?x42 ?x42 ?x42 ?x43 ?x43 ?x43 y00 y00 y00) (* ?x42 ?x43 y00 y00 y00))))
 (let ((?x50 (+ (- ?x47 (* ?x42 ?x42 ?x42 ?x42 ?x43 ?x43 y00 y00 y00 y00)) (* ?x42 ?x42 ?x42 ?x43 y00))))
 (let ((?x56 (+ (- ?x50 (* ?x42 ?x42 q00 y00)) (* ?x43 ?x43 ?x43 ?x43 y00 y00 y00) (* ?x42 q00 y00 y00 y00 y00) (* ?x42 r00 y00 y00 y00))))
 (let ((?x60 (+ (- ?x56 (* ?x43 ?x43 ?x43 r00 y00 y00 y00)) (* ?x42 ?x42 ?x42 y00))))
 (let ((?x66 (+ (- ?x60 (* ?x42 ?x42 y00 y00 y00 y00)) (* ?x42 ?x43 ?x43 ?x43 y00 y00 y00 y00) (* ?x42 ?x42 ?x42 q00 ?x43 ?x43 y00 y00 y00 y00) (* ?x42 ?x42 ?x42 ?x43 ?x43 r00 y00 y00 y00))))
 (let ((?x71 (- (- ?x66 (* ?x42 ?x42 r00)) (* q00 ?x43 ?x43 ?x43 y00 y00 y00 y00))))
 (let ((?x75 (+ (- ?x71 (* ?x42 ?x42 ?x43 r00)) (* ?x42 ?x42 ?x43) (* ?x42 ?x42 ?x43 ?x43))))
 (let (($x81 (and (= (+ (* (- 1) y00) y) 0) (= (+ (- (- r r00) (* q00 y00)) (* q y00)) 0) (or (not (= (- ?x75 (* ?x42 ?x42 q00 ?x43 y00)) 0))))))
 (rewrite (= $x81 $x1142))))))))))))))))))))))))))))))
 ))
 (let ((@x83 (asserted $x82)))
 (let ((@x395 (mp (mp @x83 (quant-intro (proof-bind ?x258) (= $x82 $x2169)) $x2169) (rewrite (= $x2169 $x2169)) $x2169)))
 (let ((@x486 (mp (mp @x395 (quant-intro (proof-bind ?x518) (= $x2169 $x344)) $x344) (quant-intro (proof-bind ?x3101) (= $x344 $x3099)) $x3099)))
 (let ((@x279 (mp (mp~ @x486 (sk (~ $x3099 $x2564)) $x2564) (rewrite (= $x2564 $x2599)) $x2599)))
 (let ((@x2581 (and-elim @x279 $x2593)))
 (let ((@x564 (unit-resolution ((_ th-lemma arith triangle-eq) (or (not $x2593) $x2583)) @x2581 $x2583)))
 (let (($x2584 (>= ?x2592 0)))
 (let ((@x858 (unit-resolution ((_ th-lemma arith triangle-eq) (or (not $x2593) $x2584)) @x2581 $x2584)))
 (let (($x2415 (<= ?x2574 0)))
 (let ((@x290 (and-elim @x279 $x2575)))
 (let ((@x498 (unit-resolution ((_ th-lemma arith triangle-eq) (or (not $x2575) $x2415)) @x290 $x2415)))
 (let (($x2580 (>= ?x2574 0)))
 (let ((@x818 (unit-resolution ((_ th-lemma arith triangle-eq) (or (not $x2575) $x2580)) @x290 $x2580)))
 (let (($x694 (not (<= ?x1515 0))))
 (let (($x2586 (>= ?x1515 0)))
 (let ((@x567 ((_ th-lemma arith) (hypothesis (not $x2586)) @x858 @x564 @x818 @x498 @x858 @x564 false)))
 (let ((@x2057 (unit-resolution ((_ th-lemma arith triangle-eq) (or $x717 $x694 (not $x2586))) (and-elim @x279 $x278) (or $x694 (not $x2586)))))
 ((_ th-lemma arith) (unit-resolution @x2057 (lemma @x567 $x2586) $x694) @x858 @x564 @x818 @x498 @x858 @x564 false)))))))))))))))))))))))))))))))))))))))))))))))))))))))))))))

(:added-eqs                 3
 :arith-assert-diseq        1
 :arith-assert-lower        22
 :arith-assert-upper        4
 :arith-conflicts           2
 :arith-eq-adapter          3
 :arith-gcd-tests           4
 :arith-grobner             2
 :arith-max-min             806
 :arith-nonlinear-bounds    18
 :arith-nonlinear-horner    6
 :arith-num-rows            3
 :arith-offset-eqs          1
 :arith-patches             4
 :arith-patches_succ        4
 :arith-pivots              3
 :arith-row-summations      1
 :arith-tableau-max-columns 115
 :arith-tableau-max-rows    3
 :conflicts                 2
 :decisions                 1
 :del-clause                10
 :final-checks              4
 :max-memory                4.14
 :memory                    3.47
 :mk-bool-var               15
 :mk-clause                 10
 :num-allocs                1538788
 :num-checks                1
 :propagations              6
 :rlimit-count              11987
 :time                      0.01
 :total-time                0.02)
